
Gurobi 13.0.1 (linux64) logging started Fri Mar 27 05:49:58 2026

Set parameter LogFile to value "logs_sparse/100B_6F_robust_gamma_0d1_theta_0d05199999999999999_2026-03-27_05h49m02s.log"
Set parameter MIPGap to value 0.005
Set parameter OptimalityTol to value 0.005
Gurobi Optimizer version 13.0.1 build v13.0.1rc0 (linux64 - "Linux Mint 22")

CPU model: 12th Gen Intel(R) Core(TM) i7-12700, instruction set [SSE2|AVX|AVX2]
Thread count: 20 physical cores, 20 logical processors, using up to 20 threads

Non-default parameters:
TimeLimit  3600
SoftMemLimit  12
MIPGap  0.005
OptimalityTol  0.005

Optimize a model with 120301 rows, 3061121 columns and 9258486 nonzeros (Max)
Model fingerprint: 0x756198a0
Model has 2970111 linear objective coefficients
Variable types: 31121 continuous, 3030000 integer (3030000 binary)
Coefficient statistics:
  Matrix range     [3e-05, 1e+05]
  Objective range  [1e+00, 3e+03]
  Bounds range     [1e+00, 1e+05]
  RHS range        [1e+00, 1e+05]

Presolve removed 78617 rows and 2622635 columns
Presolve time: 1.59s
Presolved: 41684 rows, 438486 columns, 1406966 nonzeros
Variable types: 10841 continuous, 427645 integer (427645 binary)
Found heuristic solution: objective -4.51579e+08
Performing another presolve...
Presolve added 0 rows and 10 columns
Presolve removed 20 rows and 0 columns
Presolve time: 1.98s
Deterministic concurrent LP optimizer: primal simplex, dual simplex, and barrier
Showing barrier log only...

Root barrier log...

Ordering time: 0.92s

Barrier statistics:
 AA' NZ     : 7.117e+05
 Factor NZ  : 5.951e+06 (roughly 240 MB of memory)
 Factor Ops : 1.649e+09 (less than 1 second per iteration)
 Threads    : 18

                  Objective                Residual
Iter       Primal          Dual         Primal    Dual     Compl     Time
   0  -1.35799940e+13  1.78770368e+09  2.61e+08 1.02e+03  9.13e+07     6s
   1  -2.32288879e+12  5.00023979e+09  4.47e+07 1.29e+03  1.60e+07     6s
   2  -4.09019720e+10  5.91949340e+09  8.24e+05 3.64e-11  3.02e+05     7s
   3  -5.80640013e+08  2.68197800e+09  1.22e+04 9.64e-11  7.27e+03     7s
   4   2.86646304e+08  1.52198001e+09  1.25e+03 5.82e-11  1.68e+03     7s
   5   3.15720296e+08  1.11459475e+09  8.54e+02 4.85e-11  1.08e+03     7s
   6   3.36062503e+08  8.21918689e+08  5.79e+02 4.57e-11  6.58e+02     7s
   7   3.57457624e+08  5.82826783e+08  2.94e+02 5.05e-11  3.06e+02     7s
   8   3.67912796e+08  4.84644513e+08  1.52e+02 5.33e-11  1.58e+02     7s
   9   3.75780153e+08  4.23873383e+08  4.39e+01 5.55e-11  6.11e+01     7s
  10   3.77461627e+08  3.98406166e+08  2.04e+01 1.68e-10  2.65e+01     7s
  11   3.78393918e+08  3.82953125e+08  7.90e+00 1.27e-10  6.00e+00     7s
  12   3.78732741e+08  3.80922886e+08  4.19e+00 1.04e-10  2.71e+00     8s
  13   3.79063398e+08  3.79986900e+08  9.09e-01 1.17e-10  1.05e+00     8s
  14   3.79153640e+08  3.79694353e+08  4.42e-01 9.64e-11  6.06e-01     8s
  15   3.79256799e+08  3.79578517e+08  9.96e-02 1.08e-10  3.59e-01     8s
  16   3.79288732e+08  3.79465678e+08  3.81e-02 1.33e-10  1.97e-01     8s
  17   3.79303109e+08  3.79367957e+08  1.62e-02 1.01e-10  7.22e-02     8s
  18   3.79309050e+08  3.79348061e+08  9.07e-03 1.11e-10  4.35e-02     8s
  19   3.79314187e+08  3.79336732e+08  3.75e-03 1.01e-10  2.51e-02     8s
  20   3.79315006e+08  3.79332487e+08  3.00e-03 1.14e-10  1.95e-02     8s
  21   3.79316755e+08  3.79329193e+08  1.50e-03 1.11e-10  1.39e-02     8s
  22   3.79317556e+08  3.79326828e+08  8.95e-04 1.25e-10  1.03e-02     9s
  23   3.79317857e+08  3.79324227e+08  6.56e-04 1.17e-10  7.09e-03     9s
  24   3.79318017e+08  3.79323392e+08  5.51e-04 1.25e-10  5.99e-03     9s
  25   3.79318255e+08  3.79322873e+08  3.99e-04 1.40e-10  5.14e-03     9s
  26   3.79318503e+08  3.79321957e+08  2.48e-04 1.38e-10  3.85e-03     9s
  27   3.79318649e+08  3.79321234e+08  1.59e-04 1.40e-10  2.88e-03     9s
  28   3.79318724e+08  3.79320849e+08  1.20e-04 1.30e-10  2.37e-03     9s
  29   3.79318818e+08  3.79320458e+08  6.66e-05 1.38e-10  1.83e-03     9s
  30   3.79318866e+08  3.79319985e+08  4.37e-05 1.35e-10  1.25e-03     9s
  31   3.79318896e+08  3.79319625e+08  3.08e-05 1.17e-10  8.13e-04    10s
  32   3.79318917e+08  3.79319359e+08  2.29e-05 1.20e-10  4.92e-04    10s
  33   3.79318932e+08  3.79319282e+08  1.84e-05 1.05e-10  3.91e-04    10s
  34   3.79318953e+08  3.79319198e+08  1.19e-05 1.18e-10  2.73e-04    10s
  35   3.79318967e+08  3.79319148e+08  7.56e-06 1.29e-10  2.02e-04    10s
  36   3.79318985e+08  3.79319099e+08  2.31e-06 1.26e-10  1.27e-04    10s
  37   3.79318988e+08  3.79319043e+08  1.47e-06 1.12e-10  6.16e-05    10s
  38   3.79318991e+08  3.79319025e+08  7.60e-07 1.14e-10  3.75e-05    10s
  39   3.79318992e+08  3.79319013e+08  6.56e-07 1.19e-10  2.33e-05    10s
  40   3.79318994e+08  3.79319008e+08  2.75e-07 1.27e-10  1.50e-05    10s
  41   3.79318995e+08  3.79319002e+08  1.80e-07 1.03e-10  8.21e-06    11s
  42   3.79318995e+08  3.79318999e+08  1.05e-07 1.07e-10  4.03e-06    11s
  43   3.79318996e+08  3.79318997e+08  2.66e-08 1.00e-10  7.42e-07    11s
  44   3.79318996e+08  3.79318996e+08  8.63e-09 1.02e-10  2.23e-07    11s
  45   3.79318996e+08  3.79318996e+08  1.22e-07 9.79e-11  1.06e-08    11s
  46   3.79318996e+08  3.79318996e+08  1.80e-07 8.33e-11  7.29e-11    11s

Barrier solved model in 46 iterations and 11.05 seconds (15.11 work units)
Optimal objective 3.79318996e+08


Root crossover log...

   11712 DPushes remaining with DInf 0.0000000e+00                11s
       0 DPushes remaining with DInf 8.4514483e-01                11s

    7169 PPushes remaining with PInf 1.3167923e-03                11s
       0 PPushes remaining with PInf 0.0000000e+00                11s

  Push phase complete: Pinf 0.0000000e+00, Dinf 3.0264204e+05     11s


Root simplex log...

Iteration    Objective       Primal Inf.    Dual Inf.      Time
   18590    3.7931900e+08   0.000000e+00   3.026415e+05     11s
   24089    3.7931900e+08   0.000000e+00   0.000000e+00     13s
Crossover time: 1.86 seconds (2.26 work units)
Concurrent spin time: 2.40s (can be avoided by choosing Method=3)

Solved with barrier

Root relaxation: objective 3.793190e+08, 24089 iterations, 10.62 seconds (9.83 work units)
Total elapsed time = 15.34s (DegenMoves)

    Nodes    |    Current Node    |     Objective Bounds      |     Work
 Expl Unexpl |  Obj  Depth IntInf | Incumbent    BestBd   Gap | It/Node Time

     0     0 3.7932e+08    0 8269 -4.516e+08 3.7932e+08   184%     -   16s
H    0     0                    1.745492e+08 3.7932e+08   117%     -   17s
H    0     0                    3.226212e+08 3.7932e+08  17.6%     -   17s
H    0     0                    3.303399e+08 3.7932e+08  14.8%     -   18s
H    0     0                    3.414834e+08 3.7932e+08  11.1%     -   24s
H    0     0                    3.415523e+08 3.7932e+08  11.1%     -   26s
     0     0 3.7932e+08    0 8756 3.4155e+08 3.7932e+08  11.1%     -  841s
H    0     0                    3.415621e+08 3.7932e+08  11.1%     -  868s
H    0     0                    3.446510e+08 3.7932e+08  10.1%     -  915s
H    0     0                    3.454103e+08 3.7932e+08  9.82%     - 1001s
H    0     0                    3.465012e+08 3.7932e+08  9.47%     - 1001s
H    0     0                    3.490887e+08 3.7932e+08  8.66%     - 1034s
H    0     0                    3.490901e+08 3.7932e+08  8.66%     - 1082s
H    0     0                    3.490914e+08 3.7932e+08  8.66%     - 1177s
H    0     0                    3.491265e+08 3.7932e+08  8.65%     - 1177s
H    0     0                    3.493607e+08 3.7932e+08  8.58%     - 1177s
H    0     0                    3.494565e+08 3.7932e+08  8.55%     - 1222s
H    0     0                    3.494749e+08 3.7932e+08  8.54%     - 1222s
H    0     0                    3.498028e+08 3.7932e+08  8.44%     - 1666s
H    0     0                    3.498333e+08 3.7932e+08  8.43%     - 1784s
H    0     0                    3.498367e+08 3.7932e+08  8.43%     - 1784s
H    0     0                    3.498436e+08 3.7932e+08  8.43%     - 1784s
H    0     0                    3.499310e+08 3.7932e+08  8.40%     - 1784s
H    0     0                    3.501241e+08 3.7932e+08  8.34%     - 1784s
     0     0 3.7932e+08    0 9308 3.5012e+08 3.7932e+08  8.34%     - 2169s
     0     0 3.7932e+08    0 9241 3.5012e+08 3.7932e+08  8.34%     - 3394s
H    0     0                    3.528598e+08 3.7932e+08  7.50%     - 3404s
H    0     0                    3.538352e+08 3.7932e+08  7.20%     - 3419s
H    0     0                    3.614626e+08 3.7932e+08  4.94%     - 3488s
H    0     0                    3.638054e+08 3.7932e+08  4.26%     - 3585s

Cutting planes:
  MIR: 2
  Flow cover: 38
  RLT: 2774

Explored 1 nodes (913798 simplex iterations) in 3600.17 seconds (6071.66 work units)
Thread count was 20 (of 20 available processors)

Solution count 10: 3.63805e+08 3.63805e+08 3.61463e+08 ... 3.49833e+08

Time limit reached
Best objective 3.638054364177e+08, best bound 3.793181646039e+08, gap 4.2640%
